rsa_demo_benchmark_output/128/certs/0002.assert.smt2
; benchmark generated from python API
(set-info :status unknown)
(declare-fun p () Int)
(declare-fun q () Int)
(declare-fun n () Int)
(assert
 (= p 15247726782449491973))
(assert
 (= q 17406939849537544843))
(assert
 (= n 265416262944280952553998039395056045239))
(assert
 (= (* p q) n))
(assert
 (> p 1))
(assert
 (> q 1))
(check-sat)
